CPLEX/AMMM/project.4.sol
OBJECTIVE: 0.03
f(1) = 15
f(2) = 11
f(3) = 10
